#######################################
### Exact MIP solver for the HHCRSP ###
#######################################
-- Instance file: new-instances/HHCRSP_10_3_63_1.6_C_RC.txt
-- Max threads: 4
-- Time limit: 999999 seconds
-- Use initial solution: No
Trivial flow violations prevented generating 76 variables.
Model exported.
Version identifier: 20.1.0.0 | 2020-11-10 | 9bedb6d68
CPXPARAM_Threads                                 4
CPXPARAM_TimeLimit                               999999
Tried aggregator 1 time.
LP Presolve eliminated 141 rows and 60 columns.
Reduced LP has 265 rows, 261 columns, and 1411 nonzeros.
Presolve time = 0.00 sec. (0.60 ticks)

Iteration log . . .
Iteration:     1   Dual objective     =             0.000000
Iteration:    63   Dual objective     =            58.335213

Solution status from MIP model:
-- Processing time: 0.004 sec.
-- Memory used: 14.2354 MB
-- Best bound: inf
-- Obj value: 58.3365
-- Gap: inf%
-- Total distance: 175.01
-- Total tardiness: 0
-- Largest tardiness: 0
